Problem:    Caixeiro viajante com deadline
Rows:       237
Columns:    255
Non-zeros:  954
Status:     OPTIMAL
Objective:  0 (MINimum)

   No.   Row name   St   Activity     Lower bound   Upper bound    Marginal
------ ------------ -- ------------- ------------- ------------- -------------
     1 R1           NS             1             1             =         < eps
     2 R2           NS             1             1             =         < eps
     3 R3           NS             1             1             =         < eps
     4 R4           NS             1             1             =         < eps
     5 R5           NS             1             1             =         < eps
     6 R6           NS             1             1             =         < eps
     7 R7           NS             1             1             =         < eps
     8 R8           NS             1             1             =         < eps
     9 R9           NS             1             1             =         < eps
    10 R10          NS             1             1             =         < eps
    11 R11          NS             1             1             =         < eps
    12 R12          NS             1             1             =         < eps
    13 R13          NS             1             1             =         < eps
    14 R14          NS             1             1             =         < eps
    15 R15          NS             1             1             =         < eps
    16 R16          NS             1             1             =         < eps
    17 R17          NS             1             1             =         < eps
    18 R18          NS             1             1             =         < eps
    19 R19          NS             1             1             =         < eps
    20 R20          NS             1             1             =         < eps
    21 R21          NS             1             1             =         < eps
    22 R22          NS             1             1             =         < eps
    23 R23          B              1             1             = 
    24 R24          NS             1             1             =         < eps
    25 R25          NS             1             1             =         < eps
    26 R26          B              1             1             = 
    27 R27          B              1             1             = 
    28 R28          NS             1             1             =         < eps
    29 R29          NL         -7529         -7529                       < eps
    30 R30          B       -100.744         -7529               
    31 R31          B              0         -7529               
    32 R32          B              0         -7529               
    33 R33          B              0         -7529               
    34 R34          B              0         -7529               
    35 R35          B              0         -7529               
    36 R36          B              0         -7529               
    37 R37          B              0         -7529               
    38 R38          B              0         -7529               
    39 R39          B              0         -7529               
    40 R40          B              0         -7529               
    41 R41          B              0         -7529               
    42 R42          B              0         -7529               
    43 R43          B              0         -7529               
    44 R44          B       -7478.87         -7529               
    45 R45          B       -4.03216         -7529               
    46 R46          B              0         -7529               
    47 R47          B              0         -7529               
    48 R48          B              0         -7529               
    49 R49          B              0         -7529               
    50 R50          B              0         -7529               
    51 R51          B              0         -7529               
    52 R52          B              0         -7529               
    53 R53          B              0         -7529               
    54 R54          B              0         -7529               
    55 R55          B       -97.1266         -7529               
    56 R56          B              0         -7529               
    57 R57          B       -100.512         -7529               
    58 R58          B              0         -7529               
    59 R59          B       -7495.03         -7529               
    60 R60          B              0         -7529               
    61 R61          B              0         -7529               
    62 R62          B              0         -7529               
    63 R63          B              0         -7529               
    64 R64          B              0         -7529               
    65 R65          B              0         -7529               
    66 R66          B              0         -7529               
    67 R67          B              0         -7529               
    68 R68          B              0         -7529               
    69 R69          B              0         -7529               
    70 R70          B              0         -7529               
    71 R71          B              0         -7529               
    72 R72          B              0         -7529               
    73 R73          B              0         -7529               
    74 R74          NL         -7529         -7529                       < eps
    75 R75          B       -58.1131         -7529               
    76 R76          B              0         -7529               
    77 R77          B              0         -7529               
    78 R78          B              0         -7529               
    79 R79          B              0         -7529               
    80 R80          B              0         -7529               
    81 R81          B              0         -7529               
    82 R82          B              0         -7529               
    83 R83          B              0         -7529               
    84 R84          B              0         -7529               
    85 R85          B              0         -7529               
    86 R86          B              0         -7529               
    87 R87          B              0         -7529               
    88 R88          B              0         -7529               
    89 R89          NL         -7529         -7529                       < eps
    90 R90          B       -73.8298         -7529               
    91 R91          B              0         -7529               
    92 R92          B              0         -7529               
    93 R93          B              0         -7529               
    94 R94          B              0         -7529               
    95 R95          B              0         -7529               
    96 R96          B              0         -7529               
    97 R97          B              0         -7529               
    98 R98          B              0         -7529               
    99 R99          B              0         -7529               
   100 R100         B              0         -7529               
   101 R101         B              0         -7529               
   102 R102         B       -58.1415         -7529               
   103 R103         B              0         -7529               
   104 R104         B       -7482.15         -7529               
   105 R105         B       -15.6789         -7529               
   106 R106         B              0         -7529               
   107 R107         B              0         -7529               
   108 R108         B              0         -7529               
   109 R109         B              0         -7529               
   110 R110         B              0         -7529               
   111 R111         B              0         -7529               
   112 R112         B              0         -7529               
   113 R113         B              0         -7529               
   114 R114         B              0         -7529               
   115 R115         B              0         -7529               
   116 R116         B              0         -7529               
   117 R117         B       -15.5645         -7529               
   118 R118         B              0         -7529               
   119 R119         NL         -7529         -7529                       < eps
   120 R120         B       -58.3834         -7529               
   121 R121         B              0         -7529               
   122 R122         B              0         -7529               
   123 R123         B              0         -7529               
   124 R124         B              0         -7529               
   125 R125         B              0         -7529               
   126 R126         B              0         -7529               
   127 R127         B              0         -7529               
   128 R128         B              0         -7529               
   129 R129         B              0         -7529               
   130 R130         B              0         -7529               
   131 R131         B              0         -7529               
   132 R132         B              0         -7529               
   133 R133         B              0         -7529               
   134 R134         B        -7501.9         -7529               
   135 R135         B       -58.0107         -7529               
   136 R136         B              0         -7529               
   137 R137         B              0         -7529               
   138 R138         B              0         -7529               
   139 R139         B              0         -7529               
   140 R140         B              0         -7529               
   141 R141         B              0         -7529               
   142 R142         B              0         -7529               
   143 R143         B              0         -7529               
   144 R144         B              0         -7529               
   145 R145         B              0         -7529               
   146 R146         B              0         -7529               
   147 R147         B       -58.1363         -7529               
   148 R148         B              0         -7529               
   149 R149         B        -7499.7         -7529               
   150 R150         B              0         -7529               
   151 R151         B              0         -7529               
   152 R152         B              0         -7529               
   153 R153         B              0         -7529               
   154 R154         B              0         -7529               
   155 R155         B              0         -7529               
   156 R156         B              0         -7529               
   157 R157         B              0         -7529               
   158 R158         B              0         -7529               
   159 R159         B              0         -7529               
   160 R160         B              0         -7529               
   161 R161         B              0         -7529               
   162 R162         B              0         -7529               
   163 R163         B              0         -7529               
   164 R164         NL         -7529         -7529                       < eps
   165 R165         B       -84.4376         -7529               
   166 R166         B              0         -7529               
   167 R167         B              0         -7529               
   168 R168         B              0         -7529               
   169 R169         B              0         -7529               
   170 R170         B              0         -7529               
   171 R171         B              0         -7529               
   172 R172         B              0         -7529               
   173 R173         B              0         -7529               
   174 R174         B              0         -7529               
   175 R175         B              0         -7529               
   176 R176         B              0         -7529               
   177 R177         B              0         -7529               
   178 R178         B              0         -7529               
   179 R179         B       -7497.76         -7529               
   180 R180         B       -83.8837         -7529               
   181 R181         B              0         -7529               
   182 R182         B              0         -7529               
   183 R183         B              0         -7529               
   184 R184         B              0         -7529               
   185 R185         B              0         -7529               
   186 R186         B              0         -7529               
   187 R187         B              0         -7529               
   188 R188         B              0         -7529               
   189 R189         B              0         -7529               
   190 R190         B              0         -7529               
   191 R191         B              0         -7529               
   192 R192         B       -83.8907         -7529               
   193 R193         B              0         -7529               
   194 R194         B       -7465.84         -7529               
   195 R195         B              0         -7529               
   196 R196         B              0         -7529               
   197 R197         B              0         -7529               
   198 R198         B              0         -7529               
   199 R199         B              0         -7529               
   200 R200         B              0         -7529               
   201 R201         B              0         -7529               
   202 R202         B              0         -7529               
   203 R203         B              0         -7529               
   204 R204         B              0         -7529               
   205 R205         B              0         -7529               
   206 R206         B              0         -7529               
   207 R207         B              0         -7529               
   208 R208         B              0         -7529               
   209 R209         NL         -7529         -7529                       < eps
   210 R210         B       -97.0747         -7529               
   211 R211         B              0         -7529               
   212 R212         B              0         -7529               
   213 R213         B       -96.2591         -7529               
   214 R214         B              0         -7529               
   215 R215         B              0         -7529               
   216 R216         B              0         -7529               
   217 R217         B              0         -7529               
   218 R218         B              0         -7529               
   219 R219         B              0         -7529               
   220 R220         B              0         -7529               
   221 R221         B              0         -7529               
   222 R222         B              0         -7529               
   223 R223         B              0         -7529               
   224 R224         B       -7457.34         -7529               
   225 R225         B              0          -871               
   226 R226         B              0          -824               
   227 R227         B              0          -295               
   228 R228         B              0          -712               
   229 R229         B              0          -533               
   230 R230         B              0          -924               
   231 R231         B              0          -770               
   232 R232         B              0           -18               
   233 R233         B              0          -151               
   234 R234         B              0         -1085               
   235 R235         B              0          -103               
   236 R236         B              0          -406               
   237 R237         B              0          -827               

   No. Column name  St   Activity     Lower bound   Upper bound    Marginal
------ ------------ -- ------------- ------------- ------------- -------------
     1 x[0,0]       NL             0             0             1         < eps
     2 x[0,1]       B       0.986747             0             1 
     3 x[0,2]       B      0.0132526             0             1 
     4 x[0,3]       NL             0             0             1         < eps
     5 x[0,4]       NL             0             0             1         < eps
     6 x[0,5]       NL             0             0             1         < eps
     7 x[0,6]       NL             0             0             1         < eps
     8 x[0,7]       NL             0             0             1         < eps
     9 x[0,8]       NL             0             0             1         < eps
    10 x[0,9]       NL             0             0             1         < eps
    11 x[0,10]      NL             0             0             1         < eps
    12 x[0,11]      NL             0             0             1         < eps
    13 x[0,12]      NL             0             0             1         < eps
    14 x[0,13]      NL             0             0             1         < eps
    15 x[0,14]      NL             0             0             1         < eps
    16 x[1,0]       NL             0             0             1         < eps
    17 x[1,1]       NL             0             0             1         < eps
    18 x[1,2]       B       0.986747             0             1 
    19 x[1,3]       B    0.000529738             0             1 
    20 x[1,4]       NL             0             0             1         < eps
    21 x[1,5]       NL             0             0             1         < eps
    22 x[1,6]       NL             0             0             1         < eps
    23 x[1,7]       NL             0             0             1         < eps
    24 x[1,8]       NL             0             0             1         < eps
    25 x[1,9]       NL             0             0             1         < eps
    26 x[1,10]      NL             0             0             1         < eps
    27 x[1,11]      NL             0             0             1         < eps
    28 x[1,12]      NL             0             0             1         < eps
    29 x[1,13]      B      0.0127228             0             1 
    30 x[1,14]      NL             0             0             1         < eps
    31 x[2,0]       NL             0             0             1         < eps
    32 x[2,1]       B      0.0132526             0             1 
    33 x[2,2]       NL             0             0             1         < eps
    34 x[2,3]       B       0.986747             0             1 
    35 x[2,4]       NL             0             0             1         < eps
    36 x[2,5]       NL             0             0             1         < eps
    37 x[2,6]       NL             0             0             1         < eps
    38 x[2,7]       NL             0             0             1         < eps
    39 x[2,8]       NL             0             0             1         < eps
    40 x[2,9]       NL             0             0             1         < eps
    41 x[2,10]      NL             0             0             1         < eps
    42 x[2,11]      NL             0             0             1         < eps
    43 x[2,12]      NL             0             0             1         < eps
    44 x[2,13]      NL             0             0             1         < eps
    45 x[2,14]      NL             0             0             1         < eps
    46 x[3,0]       NL             0             0             1         < eps
    47 x[3,1]       NL             0             0             1         < eps
    48 x[3,2]       NL             0             0             1         < eps
    49 x[3,3]       NL             0             0             1         < eps
    50 x[3,4]       B       0.992354             0             1 
    51 x[3,5]       B     0.00764638             0             1 
    52 x[3,6]       NL             0             0             1         < eps
    53 x[3,7]       NL             0             0             1         < eps
    54 x[3,8]       NL             0             0             1         < eps
    55 x[3,9]       NL             0             0             1         < eps
    56 x[3,10]      NL             0             0             1         < eps
    57 x[3,11]      NL             0             0             1         < eps
    58 x[3,12]      NL             0             0             1         < eps
    59 x[3,13]      NL             0             0             1         < eps
    60 x[3,14]      NL             0             0             1         < eps
    61 x[4,0]       NL             0             0             1         < eps
    62 x[4,1]       NL             0             0             1         < eps
    63 x[4,2]       NL             0             0             1         < eps
    64 x[4,3]       NL             0             0             1         < eps
    65 x[4,4]       NL             0             0             1         < eps
    66 x[4,5]       B       0.990293             0             1 
    67 x[4,6]       B     0.00970667             0             1 
    68 x[4,7]       NL             0             0             1         < eps
    69 x[4,8]       NL             0             0             1         < eps
    70 x[4,9]       NL             0             0             1         < eps
    71 x[4,10]      NL             0             0             1         < eps
    72 x[4,11]      NL             0             0             1         < eps
    73 x[4,12]      NL             0             0             1         < eps
    74 x[4,13]      NL             0             0             1         < eps
    75 x[4,14]      NL             0             0             1         < eps
    76 x[5,0]       NL             0             0             1         < eps
    77 x[5,1]       NL             0             0             1         < eps
    78 x[5,2]       NL             0             0             1         < eps
    79 x[5,3]       NL             0             0             1         < eps
    80 x[5,4]       B     0.00764638             0             1 
    81 x[5,5]       NL             0             0             1         < eps
    82 x[5,6]       B       0.990293             0             1 
    83 x[5,7]       B      0.0020603             0             1 
    84 x[5,8]       NL             0             0             1         < eps
    85 x[5,9]       NL             0             0             1         < eps
    86 x[5,10]      NL             0             0             1         < eps
    87 x[5,11]      NL             0             0             1         < eps
    88 x[5,12]      NL             0             0             1         < eps
    89 x[5,13]      NL             0             0             1         < eps
    90 x[5,14]      NL             0             0             1         < eps
    91 x[6,0]       NL             0             0             1         < eps
    92 x[6,1]       NL             0             0             1         < eps
    93 x[6,2]       NL             0             0             1         < eps
    94 x[6,3]       NL             0             0             1         < eps
    95 x[6,4]       NL             0             0             1         < eps
    96 x[6,5]       B      0.0020603             0             1 
    97 x[6,6]       NL             0             0             1         < eps
    98 x[6,7]       B       0.990249             0             1 
    99 x[6,8]       B     0.00769096             0             1 
   100 x[6,9]       NL             0             0             1         < eps
   101 x[6,10]      NL             0             0             1         < eps
   102 x[6,11]      NL             0             0             1         < eps
   103 x[6,12]      NL             0             0             1         < eps
   104 x[6,13]      NL             0             0             1         < eps
   105 x[6,14]      NL             0             0             1         < eps
   106 x[7,0]       NL             0             0             1         < eps
   107 x[7,1]       NL             0             0             1         < eps
   108 x[7,2]       NL             0             0             1         < eps
   109 x[7,3]       NL             0             0             1         < eps
   110 x[7,4]       NL             0             0             1         < eps
   111 x[7,5]       NL             0             0             1         < eps
   112 x[7,6]       NL             0             0             1         < eps
   113 x[7,7]       NL             0             0             1         < eps
   114 x[7,8]       B       0.992309             0             1 
   115 x[7,9]       B     0.00769096             0             1 
   116 x[7,10]      NL             0             0             1         < eps
   117 x[7,11]      NL             0             0             1         < eps
   118 x[7,12]      NL             0             0             1         < eps
   119 x[7,13]      NL             0             0             1         < eps
   120 x[7,14]      NL             0             0             1         < eps
   121 x[8,0]       NL             0             0             1         < eps
   122 x[8,1]       NL             0             0             1         < eps
   123 x[8,2]       NL             0             0             1         < eps
   124 x[8,3]       NL             0             0             1         < eps
   125 x[8,4]       NL             0             0             1         < eps
   126 x[8,5]       NL             0             0             1         < eps
   127 x[8,6]       NL             0             0             1         < eps
   128 x[8,7]       B     0.00769096             0             1 
   129 x[8,8]       NL             0             0             1         < eps
   130 x[8,9]       B       0.992309             0             1 
   131 x[8,10]      NL             0             0             1         < eps
   132 x[8,11]      NL             0             0             1         < eps
   133 x[8,12]      NL             0             0             1         < eps
   134 x[8,13]      NL             0             0             1         < eps
   135 x[8,14]      NL             0             0             1         < eps
   136 x[9,0]       NL             0             0             1         < eps
   137 x[9,1]       NL             0             0             1         < eps
   138 x[9,2]       NL             0             0             1         < eps
   139 x[9,3]       NL             0             0             1         < eps
   140 x[9,4]       NL             0             0             1         < eps
   141 x[9,5]       NL             0             0             1         < eps
   142 x[9,6]       NL             0             0             1         < eps
   143 x[9,7]       NL             0             0             1         < eps
   144 x[9,8]       NL             0             0             1         < eps
   145 x[9,9]       NL             0             0             1         < eps
   146 x[9,10]      B       0.988926             0             1 
   147 x[9,11]      B      0.0110736             0             1 
   148 x[9,12]      NL             0             0             1         < eps
   149 x[9,13]      NL             0             0             1         < eps
   150 x[9,14]      NL             0             0             1         < eps
   151 x[10,0]      NL             0             0             1         < eps
   152 x[10,1]      NL             0             0             1         < eps
   153 x[10,2]      NL             0             0             1         < eps
   154 x[10,3]      NL             0             0             1         < eps
   155 x[10,4]      NL             0             0             1         < eps
   156 x[10,5]      NL             0             0             1         < eps
   157 x[10,6]      NL             0             0             1         < eps
   158 x[10,7]      NL             0             0             1         < eps
   159 x[10,8]      NL             0             0             1         < eps
   160 x[10,9]      NL             0             0             1         < eps
   161 x[10,10]     NL             0             0             1         < eps
   162 x[10,11]     B       0.988926             0             1 
   163 x[10,12]     B      0.0110736             0             1 
   164 x[10,13]     NL             0             0             1         < eps
   165 x[10,14]     NL             0             0             1         < eps
   166 x[11,0]      NL             0             0             1         < eps
   167 x[11,1]      NL             0             0             1         < eps
   168 x[11,2]      NL             0             0             1         < eps
   169 x[11,3]      NL             0             0             1         < eps
   170 x[11,4]      NL             0             0             1         < eps
   171 x[11,5]      NL             0             0             1         < eps
   172 x[11,6]      NL             0             0             1         < eps
   173 x[11,7]      NL             0             0             1         < eps
   174 x[11,8]      NL             0             0             1         < eps
   175 x[11,9]      NL             0             0             1         < eps
   176 x[11,10]     B      0.0110736             0             1 
   177 x[11,11]     NL             0             0             1         < eps
   178 x[11,12]     B       0.988926             0             1 
   179 x[11,13]     NL             0             0             1         < eps
   180 x[11,14]     NL             0             0             1         < eps
   181 x[12,0]      NL             0             0             1         < eps
   182 x[12,1]      NL             0             0             1         < eps
   183 x[12,2]      NL             0             0             1         < eps
   184 x[12,3]      NL             0             0             1         < eps
   185 x[12,4]      NL             0             0             1         < eps
   186 x[12,5]      NL             0             0             1         < eps
   187 x[12,6]      NL             0             0             1         < eps
   188 x[12,7]      NL             0             0             1         < eps
   189 x[12,8]      NL             0             0             1         < eps
   190 x[12,9]      NL             0             0             1         < eps
   191 x[12,10]     NL             0             0             1         < eps
   192 x[12,11]     NL             0             0             1         < eps
   193 x[12,12]     NL             0             0             1         < eps
   194 x[12,13]     B       0.987277             0             1 
   195 x[12,14]     B      0.0127228             0             1 
   196 x[13,0]      NL             0             0             1         < eps
   197 x[13,1]      NL             0             0             1         < eps
   198 x[13,2]      NL             0             0             1         < eps
   199 x[13,3]      B      0.0127228             0             1 
   200 x[13,4]      NL             0             0             1         < eps
   201 x[13,5]      NL             0             0             1         < eps
   202 x[13,6]      NL             0             0             1         < eps
   203 x[13,7]      NL             0             0             1         < eps
   204 x[13,8]      NL             0             0             1         < eps
   205 x[13,9]      NL             0             0             1         < eps
   206 x[13,10]     NL             0             0             1         < eps
   207 x[13,11]     NL             0             0             1         < eps
   208 x[13,12]     NL             0             0             1         < eps
   209 x[13,13]     NL             0             0             1         < eps
   210 x[13,14]     B       0.987277             0             1 
   211 x[14,0]      NL             0             0             1         < eps
   212 x[14,1]      NL             0             0             1         < eps
   213 x[14,2]      NL             0             0             1         < eps
   214 x[14,3]      NL             0             0             1         < eps
   215 x[14,4]      NL             0             0             1         < eps
   216 x[14,5]      NL             0             0             1         < eps
   217 x[14,6]      NL             0             0             1         < eps
   218 x[14,7]      NL             0             0             1         < eps
   219 x[14,8]      NL             0             0             1         < eps
   220 x[14,9]      NL             0             0             1         < eps
   221 x[14,10]     NL             0             0             1         < eps
   222 x[14,11]     NL             0             0             1         < eps
   223 x[14,12]     NL             0             0             1         < eps
   224 x[14,13]     NL             0             0             1         < eps
   225 x[14,14]     NL             0             0             1         < eps
   226 phi[0]       NL             0             0                       < eps
   227 phi[1]       NL             0             0                       < eps
   228 phi[2]       NL             0             0                       < eps
   229 phi[3]       NL             0             0                       < eps
   230 phi[4]       NL             0             0                       < eps
   231 phi[5]       NL             0             0                       < eps
   232 phi[6]       NL             0             0                       < eps
   233 phi[7]       NL             0             0                       < eps
   234 phi[8]       NL             0             0                       < eps
   235 phi[9]       NL             0             0                       < eps
   236 phi[10]      NL             0             0                       < eps
   237 phi[11]      NL             0             0                       < eps
   238 phi[12]      NL             0             0                       < eps
   239 phi[13]      NL             0             0                       < eps
   240 phi[14]      NL             0             0                       < eps
   241 w[0]         NL             0             0                           1 
   242 w[1]         NL             0             0                           1 
   243 w[2]         NL             0             0                           1 
   244 w[3]         NL             0             0                           1 
   245 w[4]         NL             0             0                           1 
   246 w[5]         NL             0             0                           1 
   247 w[6]         NL             0             0                           1 
   248 w[7]         NL             0             0                           1 
   249 w[8]         NL             0             0                           1 
   250 w[9]         NL             0             0                           1 
   251 w[10]        NL             0             0                           1 
   252 w[11]        NL             0             0                           1 
   253 w[12]        NL             0             0                           1 
   254 w[13]        NL             0             0                           1 
   255 w[14]        NL             0             0                       < eps

Karush-Kuhn-Tucker optimality conditions:

KKT.PE: max.abs.err = 4.12e-13 on row 90
        max.rel.err = 4.03e-14 on row 45
        High quality

KKT.PB: max.abs.err = 0.00e+00 on row 0
        max.rel.err = 0.00e+00 on row 0
        High quality

KKT.DE: max.abs.err = 0.00e+00 on column 0
        max.rel.err = 0.00e+00 on column 0
        High quality

KKT.DB: max.abs.err = 0.00e+00 on row 0
        max.rel.err = 0.00e+00 on row 0
        High quality

End of output
